p cnf 787 586
c p distribution  0.875 0.125
c p distribution  0.875 0.125
c p distribution  0.875 0.125
c p distribution  0.875 0.125
c p distribution  0.875 0.125
c p distribution  0.875 0.125
c p distribution  0.875 0.125
c p distribution  0.875 0.125
c p distribution  0.875 0.125
c p distribution  0.875 0.125
c p distribution  0.875 0.125
c p distribution  0.875 0.125
c p distribution  0.875 0.125
c p distribution  0.875 0.125
c p distribution  0.875 0.125
c p distribution  0.875 0.125
c p distribution  0.875 0.125
c p distribution  0.875 0.125
c p distribution  0.875 0.125
c p distribution  0.875 0.125
c p distribution  0.875 0.125
c p distribution  0.875 0.125
c p distribution  0.875 0.125
c p distribution  0.875 0.125
c p distribution  0.875 0.125
c p distribution  0.875 0.125
c p distribution  0.875 0.125
c p distribution  0.875 0.125
c p distribution  0.875 0.125
c p distribution  0.875 0.125
c p distribution  0.875 0.125
c p distribution  0.875 0.125
c p distribution  0.875 0.125
c p distribution  0.875 0.125
c p distribution  0.875 0.125
c p distribution  0.875 0.125
c p distribution  0.875 0.125
c p distribution  0.875 0.125
c p distribution  0.875 0.125
c p distribution  0.875 0.125
c p distribution  0.875 0.125
c p distribution  0.875 0.125
c p distribution  0.875 0.125
c p distribution  0.875 0.125
c p distribution  0.875 0.125
c p distribution  0.875 0.125
c p distribution  0.875 0.125
c p distribution  0.875 0.125
c p distribution  0.875 0.125
c p distribution  0.875 0.125
c p distribution  0.875 0.125
c p distribution  0.875 0.125
c p distribution  0.875 0.125
c p distribution  0.875 0.125
c p distribution  0.875 0.125
c p distribution  0.875 0.125
c p distribution  0.875 0.125
c p distribution  0.875 0.125
c p distribution  0.875 0.125
c p distribution  0.875 0.125
c p distribution  0.875 0.125
c p distribution  0.875 0.125
c p distribution  0.875 0.125
c p distribution  0.875 0.125
c p distribution  0.875 0.125
c p distribution  0.875 0.125
c p distribution  0.875 0.125
c p distribution  0.875 0.125
c p distribution  0.875 0.125
c p distribution  0.875 0.125
c p distribution  0.875 0.125
c p distribution  0.875 0.125
c p distribution  0.875 0.125
c p distribution  0.875 0.125
c p distribution  0.875 0.125
c p distribution  0.875 0.125
c p distribution  0.875 0.125
c p distribution  0.875 0.125
c p distribution  0.875 0.125
c p distribution  0.875 0.125
c p distribution  0.875 0.125
c p distribution  0.875 0.125
c p distribution  0.875 0.125
c p distribution  0.875 0.125
c p distribution  0.875 0.125
c p distribution  0.875 0.125
c p distribution  0.875 0.125
c p distribution  0.875 0.125
c p distribution  0.875 0.125
c p distribution  0.875 0.125
c p distribution  0.875 0.125
c p distribution  0.875 0.125
c p distribution  0.875 0.125
c p distribution  0.875 0.125
c p distribution  0.875 0.125
c p distribution  0.875 0.125
c p distribution  0.875 0.125
c p distribution  0.875 0.125
c p distribution  0.875 0.125
c p distribution  0.875 0.125
c p distribution  0.875 0.125
c p distribution  0.875 0.125
c p distribution  0.875 0.125
c p distribution  0.875 0.125
c p distribution  0.875 0.125
c p distribution  0.875 0.125
c p distribution  0.875 0.125
c p distribution  0.875 0.125
c p distribution  0.875 0.125
c p distribution  0.875 0.125
c p distribution  0.875 0.125
c p distribution  0.875 0.125
c p distribution  0.875 0.125
c p distribution  0.875 0.125
c p distribution  0.875 0.125
c p distribution  0.875 0.125
c p distribution  0.875 0.125
c p distribution  0.875 0.125
c p distribution  0.875 0.125
c p distribution  0.875 0.125
c p distribution  0.875 0.125
c p distribution  0.875 0.125
c p distribution  0.875 0.125
c p distribution  0.875 0.125
c p distribution  0.875 0.125
c p distribution  0.875 0.125
c p distribution  0.875 0.125
c p distribution  0.875 0.125
c p distribution  0.875 0.125
c p distribution  0.875 0.125
c p distribution  0.875 0.125
c p distribution  0.875 0.125
c p distribution  0.875 0.125
c p distribution  0.875 0.125
c p distribution  0.875 0.125
c p distribution  0.875 0.125
c p distribution  0.875 0.125
c p distribution  0.875 0.125
c p distribution  0.875 0.125
c p distribution  0.875 0.125
c p distribution  0.875 0.125
c p distribution  0.875 0.125
c p distribution  0.875 0.125
c p distribution  0.875 0.125
c p distribution  0.875 0.125
c p distribution  0.875 0.125
c p distribution  0.875 0.125
c p distribution  0.875 0.125
c p distribution  0.875 0.125
c p distribution  0.875 0.125
c p distribution  0.875 0.125
c p distribution  0.875 0.125
c p distribution  0.875 0.125
c p distribution  0.875 0.125
c p distribution  0.875 0.125
c p distribution  0.875 0.125
c p distribution  0.875 0.125
c p distribution  0.875 0.125
c p distribution  0.875 0.125
c p distribution  0.875 0.125
c p distribution  0.875 0.125
c p distribution  0.875 0.125
c p distribution  0.875 0.125
c p distribution  0.875 0.125
c p distribution  0.875 0.125
c p distribution  0.875 0.125
c p distribution  0.875 0.125
c p distribution  0.875 0.125
c p distribution  0.875 0.125
c p distribution  0.875 0.125
c p distribution  0.875 0.125
c p distribution  0.875 0.125
c p distribution  0.875 0.125
c p distribution  0.875 0.125
c p distribution  0.875 0.125
c p distribution  0.875 0.125
c p distribution  0.875 0.125
c p distribution  0.875 0.125
c p distribution  0.875 0.125
c p distribution  0.875 0.125
c p distribution  0.875 0.125
c p distribution  0.875 0.125
c p distribution  0.875 0.125
c p distribution  0.875 0.125
c p distribution  0.875 0.125
c p distribution  0.875 0.125
c p distribution  0.875 0.125
c p distribution  0.875 0.125
c p distribution  0.875 0.125
c p distribution  0.875 0.125
c p distribution  0.875 0.125
c p distribution  0.875 0.125
c p distribution  0.875 0.125
c p distribution  0.875 0.125
c p distribution  0.875 0.125
c p distribution  0.875 0.125
c p distribution  0.875 0.125
c p distribution  0.875 0.125
c p distribution  0.875 0.125
c p distribution  0.875 0.125
c p distribution  0.875 0.125
c p distribution  0.875 0.125
c p distribution  0.875 0.125
c p distribution  0.875 0.125
c p distribution  0.875 0.125
c p distribution  0.875 0.125
c p distribution  0.875 0.125
c p distribution  0.875 0.125
c p distribution  0.875 0.125
c p distribution  0.875 0.125
c p distribution  0.875 0.125
c p distribution  0.875 0.125
c p distribution  0.875 0.125
c p distribution  0.875 0.125
c p distribution  0.875 0.125
c p distribution  0.875 0.125
c p distribution  0.875 0.125
c p distribution  0.875 0.125
c p distribution  0.875 0.125
c p distribution  0.875 0.125
c p distribution  0.875 0.125
c p distribution  0.875 0.125
c p distribution  0.875 0.125
c p distribution  0.875 0.125
c p distribution  0.875 0.125
c p distribution  0.875 0.125
c p distribution  0.875 0.125
c p distribution  0.875 0.125
c p distribution  0.875 0.125
c p distribution  0.875 0.125
c p distribution  0.875 0.125
c p distribution  0.875 0.125
c p distribution  0.875 0.125
c p distribution  0.875 0.125
c p distribution  0.875 0.125
c p distribution  0.875 0.125
c p distribution  0.875 0.125
c p distribution  0.875 0.125
c p distribution  0.875 0.125
c p distribution  0.875 0.125
c p distribution  0.875 0.125
c p distribution  0.875 0.125
c p distribution  0.875 0.125
c p distribution  0.875 0.125
c p distribution  0.875 0.125
c p distribution  0.875 0.125
c p distribution  0.875 0.125
c p distribution  0.875 0.125
c p distribution  0.875 0.125
c p distribution  0.875 0.125
c p distribution  0.875 0.125
c p distribution  0.875 0.125
c p distribution  0.875 0.125
c p distribution  0.875 0.125
c p distribution  0.875 0.125
c p distribution  0.875 0.125
c p distribution  0.875 0.125
c p distribution  0.875 0.125
c p distribution  0.875 0.125
c p distribution  0.875 0.125
c p distribution  0.875 0.125
c p distribution  0.875 0.125
c p distribution  0.875 0.125
c p distribution  0.875 0.125
c p distribution  0.875 0.125
c p distribution  0.875 0.125
c p distribution  0.875 0.125
c p distribution  0.875 0.125
c p distribution  0.875 0.125
c p distribution  0.875 0.125
c p distribution  0.875 0.125
c p distribution  0.875 0.125
c p distribution  0.875 0.125
c p distribution  0.875 0.125
c p distribution  0.875 0.125
c p distribution  0.875 0.125
c p distribution  0.875 0.125
c p distribution  0.875 0.125
c p distribution  0.875 0.125
c p distribution  0.875 0.125
c p distribution  0.875 0.125
c p distribution  0.875 0.125
c p distribution  0.875 0.125
c p distribution  0.875 0.125
c p distribution  0.875 0.125
c p distribution  0.875 0.125
c p distribution  0.875 0.125
c p distribution  0.875 0.125
c p distribution  0.875 0.125
c p distribution  0.875 0.125
c p distribution  0.875 0.125
c p distribution  0.875 0.125
677 0
-595 0
720 -607 -1 0
607 -720 -1 0
594 -729 -3 0
729 -594 -3 0
612 -624 -5 0
624 -612 -5 0
755 -715 -7 0
715 -755 -7 0
756 -726 -9 0
726 -756 -9 0
677 -779 -11 0
779 -677 -11 0
617 -725 -13 0
725 -617 -13 0
712 -687 -15 0
687 -712 -15 0
773 -754 -17 0
754 -773 -17 0
661 -761 -19 0
761 -661 -19 0
785 -737 -21 0
737 -785 -21 0
637 -651 -23 0
651 -637 -23 0
748 -611 -25 0
611 -748 -25 0
755 -779 -27 0
779 -755 -27 0
713 -670 -29 0
670 -713 -29 0
786 -660 -31 0
660 -786 -31 0
750 -607 -33 0
607 -750 -33 0
665 -778 -35 0
778 -665 -35 0
637 -666 -37 0
666 -637 -37 0
784 -710 -39 0
710 -784 -39 0
662 -691 -41 0
691 -662 -41 0
702 -698 -43 0
698 -702 -43 0
755 -630 -45 0
630 -755 -45 0
709 -731 -47 0
731 -709 -47 0
636 -741 -49 0
741 -636 -49 0
697 -641 -51 0
641 -697 -51 0
784 -659 -53 0
659 -784 -53 0
634 -619 -55 0
619 -634 -55 0
639 -655 -57 0
655 -639 -57 0
708 -599 -59 0
599 -708 -59 0
653 -674 -61 0
674 -653 -61 0
722 -768 -63 0
768 -722 -63 0
635 -624 -65 0
624 -635 -65 0
761 -769 -67 0
769 -761 -67 0
700 -675 -69 0
675 -700 -69 0
621 -635 -71 0
635 -621 -71 0
759 -704 -73 0
704 -759 -73 0
656 -704 -75 0
704 -656 -75 0
702 -751 -77 0
751 -702 -77 0
681 -778 -79 0
778 -681 -79 0
610 -587 -81 0
587 -610 -81 0
624 -667 -83 0
667 -624 -83 0
732 -670 -85 0
670 -732 -85 0
671 -588 -87 0
588 -671 -87 0
629 -622 -89 0
622 -629 -89 0
756 -742 -91 0
742 -756 -91 0
700 -628 -93 0
628 -700 -93 0
705 -729 -95 0
729 -705 -95 0
728 -749 -97 0
749 -728 -97 0
787 -708 -99 0
708 -787 -99 0
654 -783 -101 0
783 -654 -101 0
783 -682 -103 0
682 -783 -103 0
721 -624 -105 0
624 -721 -105 0
591 -615 -107 0
615 -591 -107 0
746 -642 -109 0
642 -746 -109 0
668 -678 -111 0
678 -668 -111 0
586 -666 -113 0
666 -586 -113 0
775 -748 -115 0
748 -775 -115 0
737 -593 -117 0
593 -737 -117 0
766 -760 -119 0
760 -766 -119 0
651 -675 -121 0
675 -651 -121 0
585 -744 -123 0
744 -585 -123 0
588 -762 -125 0
762 -588 -125 0
770 -633 -127 0
633 -770 -127 0
688 -753 -129 0
753 -688 -129 0
605 -765 -131 0
765 -605 -131 0
598 -688 -133 0
688 -598 -133 0
611 -681 -135 0
681 -611 -135 0
668 -678 -137 0
678 -668 -137 0
763 -684 -139 0
684 -763 -139 0
780 -638 -141 0
638 -780 -141 0
769 -744 -143 0
744 -769 -143 0
692 -597 -145 0
597 -692 -145 0
714 -684 -147 0
684 -714 -147 0
626 -619 -149 0
619 -626 -149 0
755 -764 -151 0
764 -755 -151 0
598 -638 -153 0
638 -598 -153 0
639 -725 -155 0
725 -639 -155 0
613 -698 -157 0
698 -613 -157 0
726 -713 -159 0
713 -726 -159 0
618 -749 -161 0
749 -618 -161 0
615 -623 -163 0
623 -615 -163 0
617 -747 -165 0
747 -617 -165 0
644 -673 -167 0
673 -644 -167 0
644 -585 -169 0
585 -644 -169 0
749 -624 -171 0
624 -749 -171 0
623 -604 -173 0
604 -623 -173 0
612 -777 -175 0
777 -612 -175 0
723 -677 -177 0
677 -723 -177 0
633 -718 -179 0
718 -633 -179 0
696 -691 -181 0
691 -696 -181 0
621 -721 -183 0
721 -621 -183 0
608 -778 -185 0
778 -608 -185 0
635 -727 -187 0
727 -635 -187 0
661 -781 -189 0
781 -661 -189 0
654 -783 -191 0
783 -654 -191 0
705 -688 -193 0
688 -705 -193 0
667 -658 -195 0
658 -667 -195 0
720 -644 -197 0
644 -720 -197 0
714 -763 -199 0
763 -714 -199 0
634 -619 -201 0
619 -634 -201 0
759 -726 -203 0
726 -759 -203 0
662 -599 -205 0
599 -662 -205 0
614 -625 -207 0
625 -614 -207 0
596 -701 -209 0
701 -596 -209 0
780 -594 -211 0
594 -780 -211 0
777 -767 -213 0
767 -777 -213 0
758 -645 -215 0
645 -758 -215 0
600 -674 -217 0
674 -600 -217 0
644 -641 -219 0
641 -644 -219 0
711 -716 -221 0
716 -711 -221 0
672 -762 -223 0
762 -672 -223 0
717 -643 -225 0
643 -717 -225 0
616 -724 -227 0
724 -616 -227 0
745 -760 -229 0
760 -745 -229 0
692 -675 -231 0
675 -692 -231 0
717 -615 -233 0
615 -717 -233 0
700 -632 -235 0
632 -700 -235 0
609 -593 -237 0
593 -609 -237 0
603 -761 -239 0
761 -603 -239 0
675 -660 -241 0
660 -675 -241 0
782 -727 -243 0
727 -782 -243 0
605 -631 -245 0
631 -605 -245 0
598 -650 -247 0
650 -598 -247 0
621 -772 -249 0
772 -621 -249 0
699 -624 -251 0
624 -699 -251 0
592 -610 -253 0
610 -592 -253 0
754 -671 -255 0
671 -754 -255 0
712 -719 -257 0
719 -712 -257 0
683 -696 -259 0
696 -683 -259 0
651 -597 -261 0
597 -651 -261 0
733 -729 -263 0
729 -733 -263 0
644 -645 -265 0
645 -644 -265 0
668 -678 -267 0
678 -668 -267 0
693 -630 -269 0
630 -693 -269 0
675 -628 -271 0
628 -675 -271 0
606 -722 -273 0
722 -606 -273 0
684 -735 -275 0
735 -684 -275 0
649 -608 -277 0
608 -649 -277 0
775 -649 -279 0
649 -775 -279 0
729 -675 -281 0
675 -729 -281 0
766 -760 -283 0
760 -766 -283 0
617 -639 -285 0
639 -617 -285 0
761 -744 -287 0
744 -761 -287 0
784 -764 -289 0
764 -784 -289 0
707 -704 -291 0
704 -707 -291 0
595 -675 -293 0
675 -595 -293 0
782 -721 -295 0
721 -782 -295 0
751 -697 -297 0
697 -751 -297 0
669 -762 -299 0
762 -669 -299 0
766 -610 -301 0
610 -766 -301 0
672 -749 -303 0
749 -672 -303 0
644 -600 -305 0
600 -644 -305 0
748 -775 -307 0
775 -748 -307 0
733 -658 -309 0
658 -733 -309 0
591 -749 -311 0
749 -591 -311 0
640 -604 -313 0
604 -640 -313 0
600 -690 -315 0
690 -600 -315 0
634 -774 -317 0
774 -634 -317 0
758 -750 -319 0
750 -758 -319 0
695 -622 -321 0
622 -695 -321 0
673 -691 -323 0
691 -673 -323 0
753 -729 -325 0
729 -753 -325 0
693 -614 -327 0
614 -693 -327 0
658 -734 -329 0
734 -658 -329 0
694 -711 -331 0
711 -694 -331 0
700 -735 -333 0
735 -700 -333 0
644 -698 -335 0
698 -644 -335 0
708 -599 -337 0
599 -708 -337 0
657 -590 -339 0
590 -657 -339 0
674 -620 -341 0
620 -674 -341 0
773 -736 -343 0
736 -773 -343 0
717 -663 -345 0
663 -717 -345 0
780 -774 -347 0
774 -780 -347 0
756 -749 -349 0
749 -756 -349 0
713 -732 -351 0
732 -713 -351 0
589 -776 -353 0
776 -589 -353 0
661 -678 -355 0
678 -661 -355 0
730 -772 -357 0
772 -730 -357 0
784 -739 -359 0
739 -784 -359 0
612 -700 -361 0
700 -612 -361 0
718 -676 -363 0
676 -718 -363 0
644 -771 -365 0
771 -644 -365 0
771 -666 -367 0
666 -771 -367 0
600 -653 -369 0
653 -600 -369 0
774 -776 -371 0
776 -774 -371 0
743 -690 -373 0
690 -743 -373 0
697 -601 -375 0
601 -697 -375 0
644 -678 -377 0
678 -644 -377 0
680 -653 -379 0
653 -680 -379 0
669 -777 -381 0
777 -669 -381 0
597 -771 -383 0
771 -597 -383 0
611 -775 -385 0
775 -611 -385 0
745 -587 -387 0
587 -745 -387 0
656 -704 -389 0
704 -656 -389 0
751 -659 -391 0
659 -751 -391 0
656 -742 -393 0
742 -656 -393 0
728 -700 -395 0
700 -728 -395 0
678 -652 -397 0
652 -678 -397 0
700 -692 -399 0
692 -700 -399 0
616 -674 -401 0
674 -616 -401 0
600 -590 -403 0
590 -600 -403 0
640 -772 -405 0
772 -640 -405 0
632 -624 -407 0
624 -632 -407 0
749 -640 -409 0
640 -749 -409 0
785 -602 -411 0
602 -785 -411 0
731 -609 -413 0
609 -731 -413 0
636 -710 -415 0
710 -636 -415 0
765 -706 -417 0
706 -765 -417 0
718 -676 -419 0
676 -718 -419 0
738 -765 -421 0
765 -738 -421 0
644 -682 -423 0
682 -644 -423 0
600 -674 -425 0
674 -600 -425 0
617 -697 -427 0
697 -617 -427 0
774 -733 -429 0
733 -774 -429 0
600 -682 -431 0
682 -600 -431 0
755 -723 -433 0
723 -755 -433 0
749 -736 -435 0
736 -749 -435 0
719 -752 -437 0
752 -719 -437 0
673 -660 -439 0
660 -673 -439 0
730 -604 -441 0
604 -730 -441 0
756 -726 -443 0
726 -756 -443 0
626 -630 -445 0
630 -626 -445 0
785 -691 -447 0
691 -785 -447 0
751 -593 -449 0
593 -751 -449 0
695 -643 -451 0
643 -695 -451 0
759 -704 -453 0
704 -759 -453 0
700 -596 -455 0
596 -700 -455 0
763 -663 -457 0
663 -763 -457 0
681 -665 -459 0
665 -681 -459 0
587 -768 -461 0
768 -587 -461 0
730 -749 -463 0
749 -730 -463 0
601 -646 -465 0
646 -601 -465 0
602 -609 -467 0
609 -602 -467 0
783 -690 -469 0
690 -783 -469 0
594 -638 -471 0
638 -594 -471 0
773 -663 -473 0
663 -773 -473 0
685 -662 -475 0
662 -685 -475 0
755 -630 -477 0
630 -755 -477 0
665 -778 -479 0
778 -665 -479 0
756 -767 -481 0
767 -756 -481 0
668 -585 -483 0
585 -668 -483 0
689 -735 -485 0
735 -689 -485 0
648 -754 -487 0
754 -648 -487 0
648 -749 -489 0
749 -648 -489 0
697 -764 -491 0
764 -697 -491 0
693 -619 -493 0
619 -693 -493 0
697 -739 -495 0
739 -697 -495 0
724 -740 -497 0
740 -724 -497 0
683 -705 -499 0
705 -683 -499 0
786 -767 -501 0
767 -786 -501 0
714 -763 -503 0
763 -714 -503 0
617 -725 -505 0
725 -617 -505 0
591 -623 -507 0
623 -591 -507 0
695 -615 -509 0
615 -695 -509 0
645 -750 -511 0
750 -645 -511 0
697 -676 -513 0
676 -697 -513 0
588 -672 -515 0
672 -588 -515 0
729 -701 -517 0
701 -729 -517 0
770 -718 -519 0
718 -770 -519 0
746 -642 -521 0
642 -746 -521 0
728 -648 -523 0
648 -728 -523 0
726 -759 -525 0
759 -726 -525 0
637 -586 -527 0
586 -637 -527 0
756 -775 -529 0
775 -756 -529 0
607 -737 -531 0
737 -607 -531 0
709 -757 -533 0
757 -709 -533 0
686 -716 -535 0
716 -686 -535 0
773 -671 -537 0
671 -773 -537 0
670 -664 -539 0
664 -670 -539 0
616 -680 -541 0
680 -616 -541 0
773 -622 -543 0
622 -773 -543 0
738 -647 -545 0
647 -738 -545 0
668 -769 -547 0
769 -668 -547 0
606 -659 -549 0
659 -606 -549 0
661 -678 -551 0
678 -661 -551 0
755 -723 -553 0
723 -755 -553 0
659 -710 -555 0
710 -659 -555 0
776 -627 -557 0
627 -776 -557 0
605 -630 -559 0
630 -605 -559 0
716 -628 -561 0
628 -716 -561 0
661 -652 -563 0
652 -661 -563 0
770 -662 -565 0
662 -770 -565 0
683 -757 -567 0
757 -683 -567 0
703 -642 -569 0
642 -703 -569 0
751 -737 -571 0
737 -751 -571 0
668 -697 -573 0
697 -668 -573 0
755 -739 -575 0
739 -755 -575 0
600 -680 -577 0
680 -600 -577 0
677 -610 -579 0
610 -677 -579 0
626 -614 -581 0
614 -626 -581 0
784 -633 -583 0
633 -784 -583 0

